Evaluation Results/Athena/results_UnderflowOverflow/output/Counterexample.1.smt2
(set-info :source |printed by MathSAT|)
(declare-fun |main::i@2| () (_ BitVec 32))
(declare-fun __VERIFIER_nondet_int!2@ () (_ BitVec 32))
(declare-fun |main::base@3| () (_ BitVec 32))
(declare-fun __VERIFIER_nondet_int!3@ () (_ BitVec 32))
(declare-fun |main::count@3| () (_ BitVec 32))
(declare-fun |__ADDRESS_OF_main::old_@| () (_ BitVec 64))
(declare-fun *int@1 () (Array (_ BitVec 64) (_ BitVec 32)))
(declare-fun |__ADDRESS_OF_main::new_@| () (_ BitVec 64))
(declare-fun |main::j@2| () (_ BitVec 32))
(declare-fun *int@2 () (Array (_ BitVec 64) (_ BitVec 32)))
(declare-fun *int@3 () (Array (_ BitVec 64) (_ BitVec 32)))
(declare-fun |main::number@2| () (_ BitVec 32))
(declare-fun __VERIFIER_nondet_int!4@ () (_ BitVec 32))
(declare-fun __VERIFIER_nondet_int!5@ () (_ BitVec 32))
(declare-fun |main::j@3| () (_ BitVec 32))
(declare-fun *int@4 () (Array (_ BitVec 64) (_ BitVec 32)))
(declare-fun *int@5 () (Array (_ BitVec 64) (_ BitVec 32)))
(declare-fun |main::__CPAchecker_TMP_0@2| () (_ BitVec 32))
(declare-fun |main::i@3| () (_ BitVec 32))
(declare-fun |main::base@4| () (_ BitVec 32))
(declare-fun __VERIFIER_nondet_int!6@ () (_ BitVec 32))
(declare-fun __VERIFIER_nondet_int!7@ () (_ BitVec 32))
(declare-fun |main::j@4| () (_ BitVec 32))
(declare-fun *int@6 () (Array (_ BitVec 64) (_ BitVec 32)))
(declare-fun *int@7 () (Array (_ BitVec 64) (_ BitVec 32)))
(declare-fun __VERIFIER_nondet_int!8@ () (_ BitVec 32))
(declare-fun __VERIFIER_nondet_int!9@ () (_ BitVec 32))
(declare-fun |main::j@5| () (_ BitVec 32))
(declare-fun *int@8 () (Array (_ BitVec 64) (_ BitVec 32)))
(declare-fun *int@9 () (Array (_ BitVec 64) (_ BitVec 32)))
(declare-fun __VERIFIER_nondet_int!10@ () (_ BitVec 32))
(declare-fun __VERIFIER_nondet_int!11@ () (_ BitVec 32))
(declare-fun |main::j@6| () (_ BitVec 32))
(declare-fun *int@10 () (Array (_ BitVec 64) (_ BitVec 32)))
(declare-fun *int@11 () (Array (_ BitVec 64) (_ BitVec 32)))
(declare-fun __VERIFIER_nondet_int!12@ () (_ BitVec 32))
(declare-fun __VERIFIER_nondet_int!13@ () (_ BitVec 32))
(declare-fun |main::j@7| () (_ BitVec 32))
(declare-fun *int@12 () (Array (_ BitVec 64) (_ BitVec 32)))
(declare-fun *int@13 () (Array (_ BitVec 64) (_ BitVec 32)))
(declare-fun __VERIFIER_nondet_int!14@ () (_ BitVec 32))
(declare-fun __VERIFIER_nondet_int!15@ () (_ BitVec 32))
(declare-fun |main::j@8| () (_ BitVec 32))
(declare-fun *int@14 () (Array (_ BitVec 64) (_ BitVec 32)))
(declare-fun *int@15 () (Array (_ BitVec 64) (_ BitVec 32)))
(declare-fun __VERIFIER_nondet_int!16@ () (_ BitVec 32))
(declare-fun __VERIFIER_nondet_int!17@ () (_ BitVec 32))
(declare-fun |main::j@9| () (_ BitVec 32))
(declare-fun *int@16 () (Array (_ BitVec 64) (_ BitVec 32)))
(declare-fun *int@17 () (Array (_ BitVec 64) (_ BitVec 32)))
(declare-fun __VERIFIER_nondet_int!18@ () (_ BitVec 32))
(declare-fun __VERIFIER_nondet_int!19@ () (_ BitVec 32))
(declare-fun |main::j@10| () (_ BitVec 32))
(declare-fun *int@18 () (Array (_ BitVec 64) (_ BitVec 32)))
(declare-fun *int@19 () (Array (_ BitVec 64) (_ BitVec 32)))
(declare-fun __VERIFIER_nondet_int!20@ () (_ BitVec 32))
(declare-fun __VERIFIER_nondet_int!21@ () (_ BitVec 32))
(declare-fun |main::j@11| () (_ BitVec 32))
(declare-fun *int@20 () (Array (_ BitVec 64) (_ BitVec 32)))
(declare-fun *int@21 () (Array (_ BitVec 64) (_ BitVec 32)))
(assert (let ((.def_102 (bvslt |main::j@2| (_ bv9 32))))(let ((.def_99 (= |main::j@2| (_ bv0 32))))(let ((.def_70 (bvurem |__ADDRESS_OF_main::new_@| (_ bv4 64))))(let ((.def_71 (= .def_70 (_ bv0 64))))(let ((.def_27 (bvadd (_ bv40 64) |__ADDRESS_OF_main::old_@|)))(let ((.def_69 (bvslt .def_27 |__ADDRESS_OF_main::new_@|)))(let ((.def_95 (and .def_69 .def_71)))(let ((.def_73 (bvadd (_ bv40 64) |__ADDRESS_OF_main::new_@|)))(let ((.def_74 (bvslt (_ bv0 64) .def_73)))(let ((.def_96 (and .def_74 .def_95)))(let ((.def_24 (bvurem |__ADDRESS_OF_main::old_@| (_ bv4 64))))(let ((.def_25 (= .def_24 (_ bv0 64))))(let ((.def_23 (bvslt (_ bv0 64) |__ADDRESS_OF_main::old_@|)))(let ((.def_65 (and .def_23 .def_25)))(let ((.def_28 (bvslt (_ bv0 64) .def_27)))(let ((.def_66 (and .def_28 .def_65)))(let ((.def_19 (= __VERIFIER_nondet_int!3@ |main::count@3|)))(let ((.def_15 (= __VERIFIER_nondet_int!2@ |main::base@3|)))(let ((.def_12 (= |main::i@2| (_ bv0 32))))(let ((.def_16 (and .def_12 .def_15)))(let ((.def_20 (and .def_16 .def_19)))(let ((.def_67 (and .def_20 .def_66)))(let ((.def_97 (and .def_67 .def_96)))(let ((.def_100 (and .def_97 .def_99)))(let ((.def_3575 (and .def_100 .def_102)))(let ((.def_277 ((_ sign_extend 32) |main::j@2|)))(let ((.def_279 (bvshl .def_277 (_ bv2 64))))(let ((.def_280 (bvadd |__ADDRESS_OF_main::old_@| .def_279)))(let ((.def_282 (store *int@1 .def_280 __VERIFIER_nondet_int!4@)))(let ((.def_283 (= *int@2 .def_282)))(let ((.def_3576 (and .def_283 .def_3575)))(let ((.def_285 (bvadd |__ADDRESS_OF_main::new_@| .def_279)))(let ((.def_287 (store *int@2 .def_285 __VERIFIER_nondet_int!5@)))(let ((.def_288 (= *int@3 .def_287)))(let ((.def_3577 (and .def_288 .def_3576)))(let ((.def_296 (bvslt (_ bv2147483646 32) |main::j@2|)))(let ((.def_301 (not .def_296)))(let ((.def_3578 (and .def_301 .def_3577)))(let ((.def_3579 (and .def_301 .def_3578)))(let ((.def_3580 (and .def_301 .def_3579)))(let ((.def_307 (bvadd (_ bv1 32) |main::j@2|)))(let ((.def_309 (= .def_307 |main::j@3|)))(let ((.def_3581 (and .def_309 .def_3580)))(let ((.def_345 (bvslt |main::j@3| (_ bv9 32))))(let ((.def_3582 (and .def_345 .def_3581)))(let ((.def_646 ((_ sign_extend 32) |main::j@3|)))(let ((.def_648 (bvshl .def_646 (_ bv2 64))))(let ((.def_649 (bvadd |__ADDRESS_OF_main::old_@| .def_648)))(let ((.def_651 (store *int@3 .def_649 __VERIFIER_nondet_int!6@)))(let ((.def_652 (= *int@4 .def_651)))(let ((.def_3583 (and .def_652 .def_3582)))(let ((.def_654 (bvadd |__ADDRESS_OF_main::new_@| .def_648)))(let ((.def_656 (store *int@4 .def_654 __VERIFIER_nondet_int!7@)))(let ((.def_657 (= *int@5 .def_656)))(let ((.def_3584 (and .def_657 .def_3583)))(let ((.def_665 (bvslt (_ bv2147483646 32) |main::j@3|)))(let ((.def_670 (not .def_665)))(let ((.def_3585 (and .def_670 .def_3584)))(let ((.def_3586 (and .def_670 .def_3585)))(let ((.def_3587 (and .def_670 .def_3586)))(let ((.def_676 (bvadd (_ bv1 32) |main::j@3|)))(let ((.def_678 (= .def_676 |main::j@4|)))(let ((.def_3588 (and .def_678 .def_3587)))(let ((.def_714 (bvslt |main::j@4| (_ bv9 32))))(let ((.def_3589 (and .def_714 .def_3588)))(let ((.def_896 ((_ sign_extend 32) |main::j@4|)))(let ((.def_898 (bvshl .def_896 (_ bv2 64))))(let ((.def_899 (bvadd |__ADDRESS_OF_main::old_@| .def_898)))(let ((.def_901 (store *int@5 .def_899 __VERIFIER_nondet_int!8@)))(let ((.def_902 (= *int@6 .def_901)))(let ((.def_3590 (and .def_902 .def_3589)))(let ((.def_904 (bvadd |__ADDRESS_OF_main::new_@| .def_898)))(let ((.def_906 (store *int@6 .def_904 __VERIFIER_nondet_int!9@)))(let ((.def_907 (= *int@7 .def_906)))(let ((.def_3591 (and .def_907 .def_3590)))(let ((.def_915 (bvslt (_ bv2147483646 32) |main::j@4|)))(let ((.def_920 (not .def_915)))(let ((.def_3592 (and .def_920 .def_3591)))(let ((.def_3593 (and .def_920 .def_3592)))(let ((.def_3594 (and .def_920 .def_3593)))(let ((.def_926 (bvadd (_ bv1 32) |main::j@4|)))(let ((.def_928 (= .def_926 |main::j@5|)))(let ((.def_3595 (and .def_928 .def_3594)))(let ((.def_971 (bvslt |main::j@5| (_ bv9 32))))(let ((.def_3596 (and .def_971 .def_3595)))(let ((.def_1182 ((_ sign_extend 32) |main::j@5|)))(let ((.def_1184 (bvshl .def_1182 (_ bv2 64))))(let ((.def_1185 (bvadd |__ADDRESS_OF_main::old_@| .def_1184)))(let ((.def_1187 (store *int@7 .def_1185 __VERIFIER_nondet_int!10@)))(let ((.def_1188 (= *int@8 .def_1187)))(let ((.def_3597 (and .def_1188 .def_3596)))(let ((.def_1190 (bvadd |__ADDRESS_OF_main::new_@| .def_1184)))(let ((.def_1192 (store *int@8 .def_1190 __VERIFIER_nondet_int!11@)))(let ((.def_1193 (= *int@9 .def_1192)))(let ((.def_3598 (and .def_1193 .def_3597)))(let ((.def_1201 (bvslt (_ bv2147483646 32) |main::j@5|)))(let ((.def_1206 (not .def_1201)))(let ((.def_3599 (and .def_1206 .def_3598)))(let ((.def_3600 (and .def_1206 .def_3599)))(let ((.def_3601 (and .def_1206 .def_3600)))(let ((.def_1212 (bvadd (_ bv1 32) |main::j@5|)))(let ((.def_1214 (= .def_1212 |main::j@6|)))(let ((.def_3602 (and .def_1214 .def_3601)))(let ((.def_1261 (bvslt |main::j@6| (_ bv9 32))))(let ((.def_3603 (and .def_1261 .def_3602)))(let ((.def_1503 ((_ sign_extend 32) |main::j@6|)))(let ((.def_1505 (bvshl .def_1503 (_ bv2 64))))(let ((.def_1506 (bvadd |__ADDRESS_OF_main::old_@| .def_1505)))(let ((.def_1508 (store *int@9 .def_1506 __VERIFIER_nondet_int!12@)))(let ((.def_1509 (= *int@10 .def_1508)))(let ((.def_3604 (and .def_1509 .def_3603)))(let ((.def_1511 (bvadd |__ADDRESS_OF_main::new_@| .def_1505)))(let ((.def_1513 (store *int@10 .def_1511 __VERIFIER_nondet_int!13@)))(let ((.def_1514 (= *int@11 .def_1513)))(let ((.def_3605 (and .def_1514 .def_3604)))(let ((.def_1522 (bvslt (_ bv2147483646 32) |main::j@6|)))(let ((.def_1527 (not .def_1522)))(let ((.def_3606 (and .def_1527 .def_3605)))(let ((.def_3607 (and .def_1527 .def_3606)))(let ((.def_3608 (and .def_1527 .def_3607)))(let ((.def_1533 (bvadd (_ bv1 32) |main::j@6|)))(let ((.def_1535 (= .def_1533 |main::j@7|)))(let ((.def_3609 (and .def_1535 .def_3608)))(let ((.def_1590 (bvslt |main::j@7| (_ bv9 32))))(let ((.def_3610 (and .def_1590 .def_3609)))(let ((.def_1868 ((_ sign_extend 32) |main::j@7|)))(let ((.def_1870 (bvshl .def_1868 (_ bv2 64))))(let ((.def_1871 (bvadd |__ADDRESS_OF_main::old_@| .def_1870)))(let ((.def_1873 (store *int@11 .def_1871 __VERIFIER_nondet_int!14@)))(let ((.def_1874 (= *int@12 .def_1873)))(let ((.def_3611 (and .def_1874 .def_3610)))(let ((.def_1876 (bvadd |__ADDRESS_OF_main::new_@| .def_1870)))(let ((.def_1878 (store *int@12 .def_1876 __VERIFIER_nondet_int!15@)))(let ((.def_1879 (= *int@13 .def_1878)))(let ((.def_3612 (and .def_1879 .def_3611)))(let ((.def_1887 (bvslt (_ bv2147483646 32) |main::j@7|)))(let ((.def_1892 (not .def_1887)))(let ((.def_3613 (and .def_1892 .def_3612)))(let ((.def_3614 (and .def_1892 .def_3613)))(let ((.def_3615 (and .def_1892 .def_3614)))(let ((.def_1898 (bvadd (_ bv1 32) |main::j@7|)))(let ((.def_1900 (= .def_1898 |main::j@8|)))(let ((.def_3616 (and .def_1900 .def_3615)))(let ((.def_1959 (bvslt |main::j@8| (_ bv9 32))))(let ((.def_3617 (and .def_1959 .def_3616)))(let ((.def_2261 ((_ sign_extend 32) |main::j@8|)))(let ((.def_2263 (bvshl .def_2261 (_ bv2 64))))(let ((.def_2264 (bvadd |__ADDRESS_OF_main::old_@| .def_2263)))(let ((.def_2266 (store *int@13 .def_2264 __VERIFIER_nondet_int!16@)))(let ((.def_2267 (= *int@14 .def_2266)))(let ((.def_3618 (and .def_2267 .def_3617)))(let ((.def_2269 (bvadd |__ADDRESS_OF_main::new_@| .def_2263)))(let ((.def_2271 (store *int@14 .def_2269 __VERIFIER_nondet_int!17@)))(let ((.def_2272 (= *int@15 .def_2271)))(let ((.def_3619 (and .def_2272 .def_3618)))(let ((.def_2280 (bvslt (_ bv2147483646 32) |main::j@8|)))(let ((.def_2285 (not .def_2280)))(let ((.def_3620 (and .def_2285 .def_3619)))(let ((.def_3621 (and .def_2285 .def_3620)))(let ((.def_3622 (and .def_2285 .def_3621)))(let ((.def_2291 (bvadd (_ bv1 32) |main::j@8|)))(let ((.def_2293 (= .def_2291 |main::j@9|)))(let ((.def_3623 (and .def_2293 .def_3622)))(let ((.def_2357 (bvslt |main::j@9| (_ bv9 32))))(let ((.def_3624 (and .def_2357 .def_3623)))(let ((.def_2690 ((_ sign_extend 32) |main::j@9|)))(let ((.def_2692 (bvshl .def_2690 (_ bv2 64))))(let ((.def_2693 (bvadd |__ADDRESS_OF_main::old_@| .def_2692)))(let ((.def_2695 (store *int@15 .def_2693 __VERIFIER_nondet_int!18@)))(let ((.def_2696 (= *int@16 .def_2695)))(let ((.def_3625 (and .def_2696 .def_3624)))(let ((.def_2698 (bvadd |__ADDRESS_OF_main::new_@| .def_2692)))(let ((.def_2700 (store *int@16 .def_2698 __VERIFIER_nondet_int!19@)))(let ((.def_2701 (= *int@17 .def_2700)))(let ((.def_3626 (and .def_2701 .def_3625)))(let ((.def_2709 (bvslt (_ bv2147483646 32) |main::j@9|)))(let ((.def_2714 (not .def_2709)))(let ((.def_3627 (and .def_2714 .def_3626)))(let ((.def_3628 (and .def_2714 .def_3627)))(let ((.def_3629 (and .def_2714 .def_3628)))(let ((.def_2720 (bvadd (_ bv1 32) |main::j@9|)))(let ((.def_2722 (= .def_2720 |main::j@10|)))(let ((.def_3630 (and .def_2722 .def_3629)))(let ((.def_2792 (bvslt |main::j@10| (_ bv9 32))))(let ((.def_3631 (and .def_2792 .def_3630)))(let ((.def_3150 ((_ sign_extend 32) |main::j@10|)))(let ((.def_3152 (bvshl .def_3150 (_ bv2 64))))(let ((.def_3153 (bvadd |__ADDRESS_OF_main::old_@| .def_3152)))(let ((.def_3155 (store *int@17 .def_3153 __VERIFIER_nondet_int!20@)))(let ((.def_3156 (= *int@18 .def_3155)))(let ((.def_3632 (and .def_3156 .def_3631)))(let ((.def_3158 (bvadd |__ADDRESS_OF_main::new_@| .def_3152)))(let ((.def_3160 (store *int@18 .def_3158 __VERIFIER_nondet_int!21@)))(let ((.def_3161 (= *int@19 .def_3160)))(let ((.def_3633 (and .def_3161 .def_3632)))(let ((.def_3169 (bvslt (_ bv2147483646 32) |main::j@10|)))(let ((.def_3174 (not .def_3169)))(let ((.def_3634 (and .def_3174 .def_3633)))(let ((.def_3635 (and .def_3174 .def_3634)))(let ((.def_3636 (and .def_3174 .def_3635)))(let ((.def_3180 (bvadd (_ bv1 32) |main::j@10|)))(let ((.def_3182 (= .def_3180 |main::j@11|)))(let ((.def_3637 (and .def_3182 .def_3636)))(let ((.def_3258 (bvslt |main::j@11| (_ bv9 32))))(let ((.def_3260 (not .def_3258)))(let ((.def_3638 (and .def_3260 .def_3637)))(let ((.def_64 (bvadd (_ bv36 64) |__ADDRESS_OF_main::old_@|)))(let ((.def_3262 (store *int@19 .def_64 (_ bv0 32))))(let ((.def_3263 (= *int@20 .def_3262)))(let ((.def_3639 (and .def_3263 .def_3638)))(let ((.def_94 (bvadd (_ bv36 64) |__ADDRESS_OF_main::new_@|)))(let ((.def_3267 (store *int@20 .def_94 (_ bv0 32))))(let ((.def_3268 (= *int@21 .def_3267)))(let ((.def_3640 (and .def_3268 .def_3639)))(let ((.def_116 (bvslt |main::base@3| |main::count@3|)))(let ((.def_3641 (and .def_116 .def_3640)))(let ((.def_123 (= |main::base@3| |main::number@2|)))(let ((.def_3642 (and .def_123 .def_3641)))(let ((.def_125 ((_ sign_extend 32) |main::i@2|)))(let ((.def_127 (bvshl .def_125 (_ bv2 64))))(let ((.def_130 (bvadd |__ADDRESS_OF_main::new_@| .def_127)))(let ((.def_3273 (select *int@21 .def_130)))(let ((.def_128 (bvadd |__ADDRESS_OF_main::old_@| .def_127)))(let ((.def_3272 (select *int@21 .def_128)))(let ((.def_3274 (= .def_3272 .def_3273)))(let ((.def_3643 (and .def_3274 .def_3642)))(let ((.def_432 (= |main::i@2| |main::__CPAchecker_TMP_0@2|)))(let ((.def_3644 (and .def_432 .def_3643)))(let ((.def_450 (bvadd (_ bv1 32) |main::i@2|)))(let ((.def_452 (= .def_450 |main::i@3|)))(let ((.def_3645 (and .def_452 .def_3644)))(let ((.def_583 (bvslt (_ bv2147483639 32) |main::base@3|)))(let ((.def_3646 (and .def_583 .def_3645)))(let ((.def_3647 (and .def_583 .def_3646)))(let ((.def_3648 (and .def_583 .def_3647)))(let ((.def_594 (bvadd (_ bv8 32) |main::base@3|)))(let ((.def_596 (= .def_594 |main::base@4|)))(let ((.def_3649 (and .def_596 .def_3648))).def_3649)))))))))))))))))))))))))))))))))))))))))))))))))))))))))))))))))))))))))))))))))))))))))))))))))))))))))))))))))))))))))))))))))))))))))))))))))))))))))))))))))))))))))))))))))))))))))))))))))))))))))))))))))))))))))))))))))))))))))))))))